;; Mutation-Based Equivalence Benchmark
;; Source:     AutomatArk / instance10937.smt2
;; Mutations:  intersect_ascii_printable_only, union_to_inter, literal_char_dec
;; Status:     sat
;;
;; Original regex vs mutated regex
;; Equivalence check: unsat ⟺ L(R1) = L(R2)

(set-info :smt-lib-version 2.6)
(set-info :category "mutation")
(set-info :status sat)
(set-logic QF_S)


;; R1: original
;; R2: mutated (intersect_ascii_printable_only, union_to_inter, literal_char_dec)
(assert
  (not
    (=
      (re.++ (str.to_re "/xsl:template") (re.* (re.comp (str.to_re ">"))) (str.to_re "priority") (re.* (re.union (str.to_re " ") (str.to_re "\u{9}") (str.to_re "\u{a}") (str.to_re "\u{c}") (str.to_re "\u{d}"))) (str.to_re "=") (re.* (re.union (str.to_re "\u{22}") (str.to_re "'") (str.to_re " ") (str.to_re "\u{9}") (str.to_re "\u{a}") (str.to_re "\u{c}") (str.to_re "\u{d}"))) (re.* (re.union (re.range "0" "9") (str.to_re "-"))) (re.union (str.to_re "\u{22}") (str.to_re "'") (re.range "0" "9") (str.to_re "-") (str.to_re " ") (str.to_re "\u{9}") (str.to_re "\u{a}") (str.to_re "\u{c}") (str.to_re "\u{d}")) (str.to_re "/smi\u{a}"))
      (re.++ (str.to_re "/xsl:template") (re.* (re.comp (str.to_re ">"))) (str.to_re "prioritx") (re.* (re.union (str.to_re " ") (str.to_re "\u{9}") (str.to_re "\u{a}") (str.to_re "\u{c}") (str.to_re "\u{d}"))) (str.to_re "=") (re.* (re.inter (str.to_re "\u{22}") (str.to_re "'") (str.to_re " ") (str.to_re "\u{9}") (str.to_re "\u{a}") (str.to_re "\u{c}") (str.to_re "\u{d}"))) (re.* (re.inter (re.union (re.range "0" "9") (str.to_re "-")) (re.* (re.range " " "~")))) (re.union (str.to_re "\u{22}") (str.to_re "'") (re.range "0" "9") (str.to_re "-") (str.to_re " ") (str.to_re "\u{9}") (str.to_re "\u{a}") (str.to_re "\u{c}") (str.to_re "\u{d}")) (str.to_re "/smi\u{a}")))))

(check-sat)
(exit)
